\* SchedulingCourses *\
Minimize
OBJ: 3 y(ART_CON) + 3 y(CHEM) + 3 y(CHEM_THERMO) + 3 y(ECE) + 3 y(ECE_NOT)
 + 3 y(ENG_ELECT) + 3 y(FL_CON) + 3 y(HI_CON) + 3 y(HU_CAP) + 3 y(ID_2050)
 + 3 y(IQP_OFF) + 3 y(IQP_ON) + 3 y(MABS) + 3 y(MATH) + 3 y(MAT_SCI)
 + 3 y(MECH_SYS_4000) + 3 y(MECH_SYS_CORE) + 3 y(ME_EXP) + 3 y(PHYS)
 + 3 y(PH_THERMO) + 3 y(PROG) + 3 y(PY_CON) + 3 y(SOC_SCI) + 3 y(THERMO_4000)
 + 3 y(THERMO_CORE) + 3 y(THERMO_INTRO) + 3 y(WR_CON)
Subject To
SR(HUA_ART_MAX): - 3 x(ART_CON)(HUA_CORE) >= -12
SR(HUA_HI_MAX): - 3 x(HI_CON)(HUA_CORE) >= -12
SR(HUA_PY_MAX): - 3 x(PY_CON)(HUA_CORE) >= -12
SR(HUA_WR_MAX): - 3 x(WR_CON)(HUA_CORE) >= -12
SR(ME_CHEM): 3 x(CHEM)(ME_BSCAP) + 3 x(CHEM_THERMO)(ME_BSCAP) >= 3
SR(ME_ES_3001_EQ): 3 x(CHEM_THERMO)(ME_BSCAP) + 3 x(CHEM_THERMO)(ME_MABS)
 + 3 x(THERMO_INTRO)(ME_E) >= 3
SR(ME_MS_CORE): 3 x(MECH_SYS_CORE)(ME_MS) >= 9
_dummy: __dummy = 0
SR(ME_OTHER_ECE): __dummy >= 0
SR(ME_PHY): 3 x(PHYS)(ME_BSCAP) + 3 x(PH_THERMO)(ME_BSCAP) >= 3
SR(ME_TS_CORE): 3 x(THERMO_CORE)(ME_TS) >= 6
SR(ON_OFF_CAMPUS): 3 x(ID_2050)(SOC_SCI_REQ) + 3 x(IQP_ON)(IQP) >= 3
SR2(HUA_DEPTH)(C0): - 9 SR2(HUA_DEPTH_0) + 3 x(ART_CON)(HUA_CORE) >= -0.1
SR2(HUA_DEPTH)(C1): - 9 SR2(HUA_DEPTH_1) + 3 x(FL_CON)(HUA_CORE) >= -0.1
SR2(HUA_DEPTH)(C2): - 9 SR2(HUA_DEPTH_2) + 3 x(WR_CON)(HUA_CORE) >= -0.1
SR2(HUA_DEPTH)(C3): - 9 SR2(HUA_DEPTH_3) + 3 x(HI_CON)(HUA_CORE) >= -0.1
SR2(HUA_DEPTH)(C4): - 9 SR2(HUA_DEPTH_4) + 3 x(PY_CON)(HUA_CORE) >= -0.1
SR2_total(HUA_DEPTH): SR2(HUA_DEPTH_0) + SR2(HUA_DEPTH_1) + SR2(HUA_DEPTH_2)
 + SR2(HUA_DEPTH_3) + SR2(HUA_DEPTH_4) >= 1
reqMin(HUA_CORE): 3 x(ART_CON)(HUA_CORE) + 3 x(FL_CON)(HUA_CORE)
 + 3 x(HI_CON)(HUA_CORE) + 3 x(PY_CON)(HUA_CORE) + 3 x(WR_CON)(HUA_CORE) >= 15
reqMin(HUA_PROJ): 3 x(HU_CAP)(HUA_PROJ) >= 3
reqMin(IQP): 3 x(IQP_OFF)(IQP) + 3 x(IQP_ON)(IQP) >= 9
reqMin(ME_BSCAP): 3 x(CHEM)(ME_BSCAP) + 3 x(CHEM_THERMO)(ME_BSCAP)
 + 3 x(PHYS)(ME_BSCAP) + 3 x(PH_THERMO)(ME_BSCAP) >= 9
reqMin(ME_E): 3 x(ECE)(ME_E) + 3 x(ENG_ELECT)(ME_E) + 3 x(THERMO_INTRO)(ME_E)
 >= 15
reqMin(ME_ECE): 3 x(ECE)(ME_ECE) >= 3
reqMin(ME_EXP): 3 x(ME_EXP)(ME_EXP) >= 3
reqMin(ME_M): 3 x(MATH)(ME_M) >= 18
reqMin(ME_MABS): 3 x(CHEM_THERMO)(ME_MABS) + 3 x(MABS)(ME_MABS)
 + 3 x(PH_THERMO)(ME_MABS) >= 6
reqMin(ME_MAT_SCI): 3 x(MAT_SCI)(ME_MAT_SCI) >= 3
reqMin(ME_MS): 3 x(MECH_SYS_4000)(ME_MS) + 3 x(MECH_SYS_CORE)(ME_MS) >= 12
reqMin(ME_PROG): 3 x(PROG)(ME_PROG) >= 3
reqMin(ME_TS): 3 x(THERMO_4000)(ME_TS) + 3 x(THERMO_CORE)(ME_TS) >= 9
reqMin(SOC_SCI_REQ): 3 x(ID_2050)(SOC_SCI_REQ) + 3 x(SOC_SCI)(SOC_SCI_REQ)
 >= 6
setY1(ART_CON): x(ART_CON)(HUA_CORE) - y(ART_CON) <= 0
setY1(CHEM): x(CHEM)(ME_BSCAP) - y(CHEM) <= 0
setY1(CHEM_THERMO): x(CHEM_THERMO)(ME_BSCAP) + x(CHEM_THERMO)(ME_MABS)
 - y(CHEM_THERMO) <= 0
setY1(ECE): x(ECE)(ME_E) + x(ECE)(ME_ECE) - y(ECE) <= 0
setY1(ENG_ELECT): x(ENG_ELECT)(ME_E) - y(ENG_ELECT) <= 0
setY1(FL_CON): x(FL_CON)(HUA_CORE) - y(FL_CON) <= 0
setY1(HI_CON): x(HI_CON)(HUA_CORE) - y(HI_CON) <= 0
setY1(HU_CAP): x(HU_CAP)(HUA_PROJ) - y(HU_CAP) <= 0
setY1(ID_2050): x(ID_2050)(SOC_SCI_REQ) - y(ID_2050) <= 0
setY1(IQP_OFF): x(IQP_OFF)(IQP) - y(IQP_OFF) <= 0
setY1(IQP_ON): x(IQP_ON)(IQP) - y(IQP_ON) <= 0
setY1(MABS): x(MABS)(ME_MABS) - y(MABS) <= 0
setY1(MATH): x(MATH)(ME_M) - y(MATH) <= 0
setY1(MAT_SCI): x(MAT_SCI)(ME_MAT_SCI) - y(MAT_SCI) <= 0
setY1(MECH_SYS_4000): x(MECH_SYS_4000)(ME_MS) - y(MECH_SYS_4000) <= 0
setY1(MECH_SYS_CORE): x(MECH_SYS_CORE)(ME_MS) - y(MECH_SYS_CORE) <= 0
setY1(ME_EXP): x(ME_EXP)(ME_EXP) - y(ME_EXP) <= 0
setY1(PHYS): x(PHYS)(ME_BSCAP) - y(PHYS) <= 0
setY1(PH_THERMO): x(PH_THERMO)(ME_BSCAP) + x(PH_THERMO)(ME_MABS)
 - y(PH_THERMO) <= 0
setY1(PROG): x(PROG)(ME_PROG) - y(PROG) <= 0
setY1(PY_CON): x(PY_CON)(HUA_CORE) - y(PY_CON) <= 0
setY1(SOC_SCI): x(SOC_SCI)(SOC_SCI_REQ) - y(SOC_SCI) <= 0
setY1(THERMO_4000): x(THERMO_4000)(ME_TS) - y(THERMO_4000) <= 0
setY1(THERMO_CORE): x(THERMO_CORE)(ME_TS) - y(THERMO_CORE) <= 1
setY1(THERMO_INTRO): x(THERMO_INTRO)(ME_E) - y(THERMO_INTRO) <= 0
setY1(WR_CON): x(WR_CON)(HUA_CORE) - y(WR_CON) <= 2
Bounds
 __dummy = 0
 0 <= x(ART_CON)(HUA_CORE) <= 10
 0 <= x(CHEM)(ME_BSCAP) <= 6
 0 <= x(ECE)(ME_E) <= 5
 0 <= x(ECE)(ME_ECE) <= 5
 0 <= x(ENG_ELECT)(ME_E) <= 27
 0 <= x(FL_CON)(HUA_CORE) <= 10
 0 <= x(HI_CON)(HUA_CORE) <= 10
 0 <= x(HU_CAP)(HUA_PROJ) <= 2
 0 <= x(IQP_OFF)(IQP) <= 5
 0 <= x(IQP_ON)(IQP) <= 5
 0 <= x(MABS)(ME_MABS) <= 15
 0 <= x(MATH)(ME_M) <= 6
 0 <= x(MECH_SYS_4000)(ME_MS) <= 5
 0 <= x(MECH_SYS_CORE)(ME_MS) <= 3
 0 <= x(ME_EXP)(ME_EXP) <= 2
 0 <= x(PHYS)(ME_BSCAP) <= 6
 0 <= x(PROG)(ME_PROG) <= 5
 0 <= x(PY_CON)(HUA_CORE) <= 10
 0 <= x(SOC_SCI)(SOC_SCI_REQ) <= 24
 0 <= x(THERMO_4000)(ME_TS) <= 2
 0 <= x(THERMO_CORE)(ME_TS) <= 2
 0 <= x(WR_CON)(HUA_CORE) <= 10
 0 <= y(ART_CON) <= 10
 0 <= y(CHEM) <= 6
 0 <= y(ECE) <= 5
 0 <= y(ENG_ELECT) <= 27
 0 <= y(FL_CON) <= 10
 0 <= y(HI_CON) <= 10
 0 <= y(HU_CAP) <= 2
 0 <= y(IQP_OFF) <= 5
 0 <= y(IQP_ON) <= 5
 0 <= y(MABS) <= 15
 0 <= y(MATH) <= 6
 0 <= y(MECH_SYS_4000) <= 5
 0 <= y(MECH_SYS_CORE) <= 3
 0 <= y(ME_EXP) <= 2
 0 <= y(PHYS) <= 6
 0 <= y(PROG) <= 5
 0 <= y(PY_CON) <= 10
 0 <= y(SOC_SCI) <= 24
 0 <= y(THERMO_4000) <= 2
 0 <= y(WR_CON) <= 8
Generals
x(ART_CON)(HUA_CORE)
x(CHEM)(ME_BSCAP)
x(ECE)(ME_E)
x(ECE)(ME_ECE)
x(ENG_ELECT)(ME_E)
x(FL_CON)(HUA_CORE)
x(HI_CON)(HUA_CORE)
x(HU_CAP)(HUA_PROJ)
x(IQP_OFF)(IQP)
x(IQP_ON)(IQP)
x(MABS)(ME_MABS)
x(MATH)(ME_M)
x(MECH_SYS_4000)(ME_MS)
x(MECH_SYS_CORE)(ME_MS)
x(ME_EXP)(ME_EXP)
x(PHYS)(ME_BSCAP)
x(PROG)(ME_PROG)
x(PY_CON)(HUA_CORE)
x(SOC_SCI)(SOC_SCI_REQ)
x(THERMO_4000)(ME_TS)
x(THERMO_CORE)(ME_TS)
x(WR_CON)(HUA_CORE)
y(ART_CON)
y(CHEM)
y(ECE)
y(ENG_ELECT)
y(FL_CON)
y(HI_CON)
y(HU_CAP)
y(IQP_OFF)
y(IQP_ON)
y(MABS)
y(MATH)
y(MECH_SYS_4000)
y(MECH_SYS_CORE)
y(ME_EXP)
y(PHYS)
y(PROG)
y(PY_CON)
y(SOC_SCI)
y(THERMO_4000)
y(WR_CON)
Binaries
SR2(HUA_DEPTH_0)
SR2(HUA_DEPTH_1)
SR2(HUA_DEPTH_2)
SR2(HUA_DEPTH_3)
SR2(HUA_DEPTH_4)
x(CHEM_THERMO)(ME_BSCAP)
x(CHEM_THERMO)(ME_MABS)
x(ID_2050)(SOC_SCI_REQ)
x(MAT_SCI)(ME_MAT_SCI)
x(PH_THERMO)(ME_BSCAP)
x(PH_THERMO)(ME_MABS)
x(THERMO_INTRO)(ME_E)
y(CHEM_THERMO)
y(ECE_NOT)
y(ID_2050)
y(MAT_SCI)
y(PH_THERMO)
y(THERMO_CORE)
y(THERMO_INTRO)
End
